20 54
36 32
17 173
94 27
90 40
8 184
85 14
43 54
19 37
22 10
19 178
2 66
33 4
35 29
4 84
29 5
36 99
26 132
35 51
77 59
22 39
46 83
15 93
10 156
36 104
2 87
64 35
4 115
32 84
21 173
9 198
41 107
9 3
91 64
8 81
2 71
97 45
11 156
1 50
83 13
82 36
46 24
93 20
39 6
49 8
25 89
61 83
29 37
27 127
30 63
